
Gurobi 12.0.0 (mac64[arm], gurobi_cl) logging started Sun Nov 17 13:50:08 2024

Set parameter Username
Set parameter LicenseID to value 2586045
Set parameter LogFile to value "gurobi.log"
Using license file /Users/grace/gurobi.lic
Academic license - for non-commercial use only - expires 2025-11-17
